TCS_Benchmarks/redos_fix/regexlib2_output_distinct_2225_2224_0_0.txt
([0-9]{1,8})([0-9]{1,2})
([0-9]{1,8})(\.{0,1})([0-9]{1,2})